(declare-fun alpha1_ack!152 () (_ BitVec 64))
(declare-fun beta_ack!153 () (_ BitVec 64))
(declare-fun mu_ack!154 () (_ BitVec 32))
(declare-fun nu_ack!155 () (_ BitVec 32))
(assert (not (fp.lt ((_ to_fp 11 53) alpha1_ack!152)
            ((_ to_fp 11 53) #xbff0000000000000))))
(assert (not (fp.lt ((_ to_fp 11 53) beta_ack!153) ((_ to_fp 11 53) #xbff0000000000000))))
(assert (= #x00000000 mu_ack!154))
(assert (= #x00000000 nu_ack!155))

(check-sat)
(exit)
